70
1693
24
25
34
7
29
22
66
51
42
35
58
0
42
90
0
82
6
37
76
85
35
24
89
73
0
0 2
0 4
0 5
0 7
0 9
0 11
0 12
0 13
0 15
0 17
0 18
0 19
0 20
0 21
0 23
0 24
0 26
0 28
0 29
0 32
0 34
0 35
0 36
0 37
0 38
0 40
0 41
0 42
0 43
0 44
0 46
0 49
0 50
0 52
0 53
0 54
0 55
0 56
0 59
0 60
0 62
0 64
0 65
0 67
0 69
1 2
1 3
1 4
1 6
1 7
1 8
1 9
1 10
1 11
1 12
1 13
1 14
1 15
1 18
1 19
1 21
1 22
1 23
1 24
1 25
1 26
1 28
1 29
1 30
1 33
1 34
1 35
1 39
1 40
1 43
1 44
1 45
1 47
1 52
1 53
1 54
1 55
1 56
1 57
1 59
1 61
1 62
1 64
1 65
1 66
1 67
1 69
2 7
2 9
2 10
2 11
2 12
2 13
2 14
2 15
2 16
2 17
2 18
2 21
2 22
2 23
2 24
2 25
2 26
2 27
2 29
2 30
2 32
2 33
2 34
2 36
2 37
2 39
2 40
2 41
2 44
2 47
2 48
2 49
2 50
2 52
2 53
2 54
2 58
2 60
2 63
2 64
2 65
2 66
2 68
3 4
3 6
3 7
3 9
3 10
3 12
3 13
3 14
3 17
3 18
3 20
3 21
3 22
3 23
3 24
3 25
3 26
3 27
3 28
3 29
3 31
3 32
3 33
3 35
3 36
3 38
3 39
3 40
3 42
3 43
3 44
3 46
3 47
3 49
3 50
3 51
3 52
3 53
3 54
3 55
3 56
3 58
3 59
3 60
3 61
3 62
3 63
3 64
3 65
3 66
3 67
3 68
4 6
4 7
4 10
4 11
4 15
4 16
4 19
4 21
4 23
4 24
4 25
4 26
4 27
4 29
4 31
4 32
4 33
4 34
4 35
4 36
4 39
4 40
4 41
4 42
4 44
4 46
4 47
4 48
4 49
4 53
4 55
4 56
4 57
4 58
4 59
4 60
4 61
4 62
4 63
4 65
4 67
4 68
4 69
5 6
5 7
5 8
5 9
5 10
5 11
5 13
5 14
5 15
5 17
5 18
5 19
5 21
5 24
5 25
5 26
5 27
5 28
5 29
5 30
5 31
5 32
5 33
5 34
5 35
5 36
5 38
5 39
5 40
5 42
5 43
5 44
5 45
5 46
5 47
5 48
5 49
5 50
5 51
5 52
5 54
5 55
5 56
5 60
5 62
5 65
5 66
5 67
5 68
5 69
6 8
6 9
6 10
6 12
6 13
6 14
6 16
6 17
6 19
6 20
6 21
6 27
6 28
6 30
6 32
6 35
6 38
6 39
6 40
6 41
6 42
6 43
6 44
6 45
6 46
6 49
6 50
6 51
6 52
6 53
6 54
6 56
6 57
6 58
6 60
6 63
6 64
6 65
6 66
6 67
6 69
7 8
7 10
7 11
7 12
7 13
7 14
7 15
7 19
7 21
7 23
7 25
7 26
7 28
7 29
7 30
7 31
7 32
7 33
7 34
7 35
7 36
7 38
7 39
7 41
7 43
7 44
7 46
7 47
7 48
7 49
7 50
7 52
7 53
7 54
7 55
7 57
7 59
7 60
7 61
7 62
7 64
7 65
7 66
7 67
8 10
8 13
8 14
8 15
8 16
8 17
8 19
8 20
8 21
8 22
8 24
8 25
8 26
8 27
8 29
8 30
8 31
8 32
8 33
8 35
8 36
8 37
8 38
8 39
8 41
8 42
8 43
8 45
8 47
8 48
8 50
8 51
8 52
8 53
8 54
8 57
8 58
8 59
8 60
8 62
8 63
8 64
8 65
8 66
8 67
8 68
8 69
9 11
9 12
9 13
9 14
9 15
9 16
9 19
9 20
9 23
9 24
9 25
9 26
9 27
9 28
9 29
9 30
9 31
9 32
9 33
9 34
9 35
9 36
9 37
9 38
9 40
9 43
9 44
9 45
9 46
9 47
9 48
9 49
9 51
9 53
9 57
9 58
9 59
9 60
9 61
9 64
9 65
9 66
9 67
9 68
9 69
10 12
10 13
10 14
10 16
10 18
10 20
10 21
10 22
10 23
10 27
10 28
10 29
10 30
10 32
10 33
10 34
10 36
10 37
10 38
10 39
10 40
10 43
10 45
10 47
10 48
10 49
10 50
10 52
10 54
10 55
10 56
10 57
10 59
10 60
10 62
10 64
10 65
10 67
10 68
11 12
11 13
11 15
11 16
11 17
11 18
11 19
11 20
11 21
11 23
11 24
11 25
11 26
11 27
11 29
11 30
11 33
11 34
11 35
11 36
11 38
11 39
11 40
11 41
11 42
11 44
11 46
11 48
11 49
11 50
11 51
11 52
11 55
11 56
11 57
11 58
11 60
11 61
11 62
11 64
11 65
11 67
12 13
12 14
12 15
12 16
12 17
12 18
12 20
12 21
12 23
12 24
12 25
12 26
12 27
12 29
12 31
12 32
12 36
12 37
12 38
12 39
12 40
12 41
12 43
12 44
12 46
12 47
12 52
12 53
12 54
12 56
12 57
12 58
12 59
12 60
12 65
12 66
12 67
12 69
13 16
13 17
13 18
13 20
13 22
13 23
13 24
13 25
13 26
13 28
13 29
13 30
13 33
13 35
13 36
13 37
13 39
13 41
13 42
13 45
13 46
13 48
13 54
13 55
13 56
13 57
13 59
13 60
13 61
13 62
13 63
13 65
13 66
13 67
14 15
14 16
14 18
14 20
14 22
14 25
14 28
14 29
14 30
14 31
14 33
14 34
14 35
14 37
14 39
14 41
14 43
14 44
14 47
14 48
14 49
14 50
14 51
14 52
14 54
14 55
14 56
14 57
14 58
14 59
14 60
14 62
14 63
14 64
14 65
14 67
14 68
14 69
15 16
15 17
15 18
15 19
15 20
15 21
15 22
15 24
15 25
15 27
15 28
15 30
15 31
15 32
15 34
15 36
15 37
15 38
15 39
15 40
15 41
15 43
15 44
15 46
15 47
15 49
15 50
15 52
15 54
15 55
15 57
15 58
15 59
15 61
15 62
15 64
15 65
15 66
15 67
15 68
15 69
16 18
16 21
16 23
16 25
16 27
16 28
16 29
16 31
16 33
16 34
16 35
16 38
16 39
16 41
16 42
16 43
16 44
16 45
16 47
16 48
16 49
16 50
16 51
16 52
16 53
16 55
16 56
16 57
16 58
16 59
16 60
16 61
16 63
16 66
16 67
16 68
16 69
17 21
17 24
17 28
17 29
17 30
17 31
17 33
17 34
17 35
17 36
17 37
17 38
17 39
17 40
17 41
17 42
17 43
17 46
17 47
17 50
17 52
17 53
17 55
17 56
17 57
17 58
17 59
17 60
17 61
17 63
17 64
17 65
17 66
18 20
18 21
18 22
18 23
18 24
18 25
18 26
18 27
18 28
18 29
18 30
18 31
18 32
18 33
18 37
18 38
18 39
18 40
18 41
18 42
18 43
18 46
18 47
18 49
18 50
18 51
18 52
18 53
18 55
18 56
18 57
18 59
18 60
18 61
18 62
18 63
18 64
18 65
18 66
18 67
18 68
19 23
19 24
19 27
19 28
19 29
19 33
19 34
19 35
19 36
19 37
19 38
19 40
19 42
19 45
19 48
19 50
19 51
19 53
19 55
19 56
19 58
19 59
19 60
19 62
19 63
19 64
19 65
19 66
19 67
19 68
19 69
20 23
20 24
20 25
20 26
20 30
20 31
20 32
20 33
20 35
20 36
20 38
20 40
20 41
20 42
20 43
20 44
20 45
20 47
20 49
20 51
20 54
20 55
20 56
20 57
20 58
20 59
20 62
20 63
20 65
20 66
20 67
20 69
21 22
21 24
21 27
21 28
21 29
21 30
21 31
21 32
21 33
21 34
21 37
21 39
21 40
21 41
21 43
21 44
21 45
21 46
21 47
21 51
21 53
21 54
21 55
21 56
21 58
21 60
21 61
21 62
21 63
21 64
21 67
21 68
21 69
22 23
22 24
22 27
22 30
22 31
22 33
22 35
22 36
22 39
22 40
22 43
22 44
22 45
22 46
22 47
22 48
22 49
22 50
22 51
22 52
22 53
22 55
22 56
22 57
22 58
22 59
22 60
22 61
22 62
22 63
22 65
22 66
22 67
22 69
23 24
23 26
23 27
23 28
23 29
23 32
23 33
23 34
23 35
23 37
23 39
23 42
23 43
23 45
23 47
23 49
23 52
23 56
23 57
23 58
23 59
23 60
23 61
23 62
23 63
23 64
23 66
23 67
23 68
23 69
24 27
24 28
24 29
24 30
24 31
24 32
24 33
24 35
24 36
24 38
24 39
24 40
24 41
24 43
24 44
24 46
24 47
24 48
24 49
24 50
24 51
24 54
24 55
24 56
24 57
24 59
24 61
24 62
24 63
24 64
24 65
24 66
24 67
24 69
25 26
25 28
25 29
25 31
25 33
25 34
25 35
25 36
25 37
25 39
25 40
25 43
25 46
25 47
25 48
25 49
25 50
25 52
25 53
25 54
25 55
25 56
25 57
25 58
25 59
25 60
25 61
25 62
25 63
25 64
25 65
25 66
25 68
26 28
26 29
26 30
26 31
26 32
26 34
26 35
26 36
26 37
26 38
26 39
26 40
26 42
26 44
26 45
26 46
26 47
26 49
26 50
26 51
26 52
26 54
26 55
26 56
26 58
26 59
26 60
26 61
26 62
26 64
26 65
26 66
26 67
26 69
27 28
27 29
27 32
27 33
27 34
27 35
27 37
27 39
27 40
27 41
27 42
27 43
27 44
27 45
27 46
27 47
27 48
27 50
27 52
27 54
27 57
27 60
27 61
27 62
27 65
28 29
28 30
28 32
28 33
28 34
28 35
28 36
28 37
28 39
28 41
28 42
28 44
28 45
28 46
28 49
28 50
28 52
28 53
28 54
28 55
28 57
28 58
28 60
28 61
28 64
28 66
28 67
28 68
28 69
29 30
29 31
29 32
29 33
29 35
29 36
29 38
29 40
29 42
29 44
29 47
29 48
29 50
29 51
29 53
29 55
29 57
29 59
29 60
29 61
29 63
29 64
29 65
29 67
29 68
29 69
30 31
30 32
30 33
30 35
30 36
30 37
30 38
30 40
30 41
30 43
30 46
30 47
30 48
30 49
30 50
30 52
30 53
30 54
30 55
30 57
30 58
30 59
30 61
30 62
30 63
30 64
30 65
30 66
30 67
30 68
30 69
31 34
31 36
31 37
31 38
31 40
31 41
31 42
31 43
31 45
31 46
31 47
31 48
31 49
31 50
31 52
31 53
31 55
31 56
31 57
31 58
31 59
31 60
31 63
31 65
31 66
31 69
32 33
32 35
32 36
32 37
32 39
32 41
32 42
32 43
32 44
32 46
32 47
32 49
32 50
32 52
32 55
32 56
32 57
32 58
32 60
32 62
32 63
32 64
32 65
32 66
33 34
33 36
33 39
33 41
33 42
33 44
33 45
33 46
33 48
33 49
33 50
33 52
33 53
33 54
33 55
33 57
33 58
33 59
33 60
33 62
33 63
33 65
33 66
33 67
33 68
33 69
34 35
34 36
34 37
34 38
34 39
34 40
34 41
34 47
34 48
34 49
34 50
34 53
34 54
34 55
34 58
34 59
34 60
34 61
34 62
34 64
34 65
34 66
34 67
34 68
34 69
35 36
35 37
35 39
35 40
35 42
35 44
35 45
35 46
35 48
35 50
35 51
35 52
35 54
35 55
35 56
35 57
35 58
35 59
35 60
35 61
35 62
35 63
35 65
35 66
35 69
36 37
36 38
36 41
36 42
36 44
36 46
36 47
36 49
36 51
36 52
36 53
36 54
36 55
36 57
36 61
36 62
36 63
36 65
36 66
36 69
37 39
37 41
37 42
37 43
37 44
37 45
37 46
37 47
37 48
37 50
37 53
37 56
37 58
37 59
37 60
37 61
37 62
37 64
37 65
37 66
37 67
37 68
37 69
38 39
38 40
38 41
38 42
38 43
38 45
38 46
38 49
38 50
38 52
38 54
38 55
38 56
38 58
38 59
38 60
38 61
38 62
38 63
38 64
38 65
38 67
38 68
38 69
39 40
39 41
39 42
39 43
39 44
39 46
39 47
39 50
39 52
39 53
39 54
39 55
39 56
39 59
39 60
39 61
39 62
39 63
39 64
39 66
39 67
39 68
40 41
40 42
40 43
40 44
40 48
40 49
40 53
40 54
40 55
40 56
40 59
40 60
40 61
40 63
40 64
40 65
40 66
40 67
40 68
40 69
41 43
41 46
41 47
41 49
41 50
41 51
41 52
41 53
41 57
41 59
41 60
41 61
41 62
41 63
41 64
41 65
41 66
41 67
41 68
42 43
42 44
42 45
42 47
42 50
42 51
42 52
42 53
42 54
42 55
42 56
42 57
42 58
42 59
42 60
42 62
42 63
42 65
42 66
42 68
42 69
43 44
43 45
43 46
43 47
43 50
43 51
43 52
43 53
43 54
43 57
43 58
43 59
43 60
43 62
43 63
43 64
43 65
43 67
43 68
44 46
44 47
44 48
44 49
44 50
44 52
44 53
44 54
44 56
44 58
44 59
44 60
44 61
44 62
44 67
44 68
44 69
45 46
45 47
45 48
45 49
45 50
45 54
45 56
45 57
45 58
45 59
45 60
45 61
45 62
45 63
45 64
45 65
45 66
45 68
45 69
46 47
46 48
46 51
46 52
46 53
46 55
46 56
46 58
46 60
46 61
46 62
46 63
46 64
46 66
46 67
46 69
47 48
47 49
47 50
47 51
47 52
47 53
47 54
47 55
47 56
47 57
47 59
47 60
47 64
47 65
47 68
47 69
48 49
48 50
48 51
48 56
48 58
48 60
48 61
48 62
48 63
48 64
48 66
48 69
49 50
49 51
49 52
49 53
49 54
49 55
49 58
49 59
49 64
49 65
49 66
49 68
49 69
50 52
50 56
50 57
50 58
50 59
50 62
50 63
50 64
50 65
50 66
50 67
50 68
50 69
51 52
51 53
51 55
51 56
51 57
51 58
51 59
51 61
51 64
51 65
51 66
51 67
51 69
52 53
52 54
52 56
52 57
52 58
52 59
52 60
52 61
52 62
52 63
52 64
52 65
52 66
52 69
53 54
53 55
53 56
53 57
53 59
53 60
53 64
53 67
53 68
53 69
54 55
54 56
54 57
54 60
54 61
54 62
54 63
54 66
54 67
54 68
54 69
55 56
55 59
55 60
55 61
55 62
55 63
55 64
55 65
55 66
55 67
55 68
55 69
56 59
56 61
56 63
56 64
56 65
56 68
56 69
57 59
57 60
57 62
57 63
57 65
57 66
57 67
58 59
58 60
58 61
58 63
58 64
58 65
58 66
58 67
58 68
58 69
59 60
59 61
59 62
59 64
59 66
59 68
60 63
60 64
60 65
60 66
60 67
60 69
61 63
61 64
61 65
61 66
61 67
61 68
61 69
62 63
62 64
62 65
62 66
62 67
63 64
63 65
63 67
64 65
64 68
64 69
65 66
65 67
65 69
66 68
66 69
67 68
67 69
37 55 31
4 57 68
10 12 29
18 61 1
35 66 23
22 8 5
56 19 24
39 43 42
48 34 41
67 14 27
7 36 32
62 16 51
20 25 46
54 45 63
65 17 40
13 3 64
26 47 49
0 21 50
2 52 11
9 59 58
6 33 38
69 44 15
60 53 28
30
